--------------------------------------------------------------------------------(Solver execution current time: 0.00017023086547851562)
[INFO] Input Seed : 8222449
--------------------------------------------------------------------------------(Solver execution current time: 0.0002040863037109375)
[INFO] Input time limit : 30
--------------------------------------------------------------------------------(Solver execution current time: 0.0002281665802001953)
[INFO] Command line arguments read with no errors.
--------------------------------------------------------------------------------(Solver execution current time: 0.035778045654296875)
[INFO] Input file read with no errors.
--------------------------------------------------------------------------------(Solver execution current time: 0.03590869903564453)
[INFO] Starting solver.
--------------------------------------------------------------------------------(Solver execution current time: 0.03597092628479004)
[INFO] Starting construction
--------------------------------------------------------------------------------(Solver execution current time: 13.406054973602295)
[INFO] Finished construction
--------------------------------------------------------------------------------(Solver execution current time: 13.40616250038147)
[SOLUTION]
Basic Greedy Heuristic
Exec Time: 13.370086431503296
obj_value: -69; obj_routes: 27406.0
Route 1 : 32 40 55 52 2 6 107 127 13 77 115 3 11 86 42 78 68 81 31 41 19 117 60 106 143 130 116 4 88 12 79 135 94 87 56 131 69 144 
Route 2 : 73 9 84 70 33 108 148 53 145 128 27 1 54 76 63 48 129 102 22 97 28 59 138 134 103 47 123 35 110 122 
Route 3 : 51 126 10 62 137 14 49 85 89 18 93 124 39 114 20 64 139 50 37 112 125 95 
Route 4 : 21 29 104 74 149 23 15 98 38 96 45 5 80 113 43 90 57 120 132 118 
Route 5 : 75 150 66 141 25 100 7 61 136 71 65 140 67 26 82 44 119 101 142 146 
Route 6 : 17 8 92 30 83 105 
Route 7 : 36 111 
Route 8 : 
Route 9 : 
Route 10 : 
Route 11 : 
Route 12 : 
Route 13 : 
Route 14 : 
Route 15 : 
Route 16 : 
Route 17 : 
Route 18 : 
Route 19 : 
Route 20 : 
Route 21 : 

--------------------------------------------------------------------------------(Solver execution current time: 13.407196760177612)
[SOLUTION]
Solution after BasicGreedyLimitedHeterogeneousFleet
obj_value: -69; obj_routes: 27406.0
Route 1 : 32 40 55 52 2 6 107 127 13 77 115 3 11 86 42 78 68 81 31 41 19 117 60 106 143 130 116 4 88 12 79 135 94 87 56 131 69 144 
Route 2 : 73 9 84 70 33 108 148 53 145 128 27 1 54 76 63 48 129 102 22 97 28 59 138 134 103 47 123 35 110 122 
Route 3 : 51 126 10 62 137 14 49 85 89 18 93 124 39 114 20 64 139 50 37 112 125 95 
Route 4 : 21 29 104 74 149 23 15 98 38 96 45 5 80 113 43 90 57 120 132 118 
Route 5 : 75 150 66 141 25 100 7 61 136 71 65 140 67 26 82 44 119 101 142 146 
Route 6 : 17 8 92 30 83 105 
Route 7 : 36 111 
Route 8 : 
Route 9 : 
Route 10 : 
Route 11 : 
Route 12 : 
Route 13 : 
Route 14 : 
Route 15 : 
Route 16 : 
Route 17 : 
Route 18 : 
Route 19 : 
Route 20 : 
Route 21 : 

--------------------------------------------------------------------------------(Solver execution current time: 13.407429456710815)
[INFO] Starting metaheuristic
--------------------------------------------------------------------------------(Solver execution current time: 13.410041809082031)
[INFO] AGES EXCLUDED
--------------------------------------------------------------------------------(Solver execution current time: 13.411577701568604)
[INFO] Starting LNS
--------------------------------------------------------------------------------(Solver execution current time: 14.206710815429688)
[SOLUTION]
LNS
IT: 40
Exec Time: 0.7931838035583496
obj_value: -69; obj_routes: 27406.0
Route 1 : 32 40 55 52 2 6 107 127 13 77 115 3 11 86 42 78 68 81 31 41 19 117 60 106 143 130 116 4 88 12 79 135 94 87 56 131 69 144 
Route 2 : 73 9 84 70 33 108 148 53 145 128 27 1 54 76 63 48 129 102 22 97 28 59 138 134 103 47 123 35 110 122 
Route 3 : 51 126 10 62 137 14 49 85 89 18 93 124 39 114 20 64 139 50 37 112 125 95 
Route 4 : 21 29 104 74 149 23 15 98 38 96 45 5 80 113 43 90 57 120 132 118 
Route 5 : 75 150 66 141 25 100 7 61 136 71 65 140 67 26 82 44 119 101 142 146 
Route 6 : 17 8 92 30 83 105 
Route 7 : 36 111 
Route 8 : 
Route 9 : 
Route 10 : 
Route 11 : 
Route 12 : 
Route 13 : 
Route 14 : 
Route 15 : 
Route 16 : 
Route 17 : 
Route 18 : 
Route 19 : 
Route 20 : 
Route 21 : 

--------------------------------------------------------------------------------(Solver execution current time: 14.20877456665039)
[INFO] Starting PartitionMaxRequestsHF
--------------------------------------------------------------------------------(Solver execution current time: 14.263179540634155)
[SOLUTION]
PartitionMaxRequestsHF
Exec Time: 0.0543062686920166
obj_value: -69; obj_routes: 27406.0
Route 1 : 32 40 55 52 2 6 107 127 13 77 115 3 11 86 42 78 68 81 31 41 19 117 60 106 143 130 116 4 88 12 79 135 94 87 56 131 69 144 
Route 2 : 73 9 84 70 33 108 148 53 145 128 27 1 54 76 63 48 129 102 22 97 28 59 138 134 103 47 123 35 110 122 
Route 3 : 51 126 10 62 137 14 49 85 89 18 93 124 39 114 20 64 139 50 37 112 125 95 
Route 4 : 21 29 104 74 149 23 15 98 38 96 45 5 80 113 43 90 57 120 132 118 
Route 5 : 75 150 66 141 25 100 7 61 136 71 65 140 67 26 82 44 119 101 142 146 
Route 6 : 17 8 92 30 83 105 
Route 7 : 36 111 
Route 8 : 
Route 9 : 
Route 10 : 
Route 11 : 
Route 12 : 
Route 13 : 
Route 14 : 
Route 15 : 
Route 16 : 
Route 17 : 
Route 18 : 
Route 19 : 
Route 20 : 
Route 21 : 

--------------------------------------------------------------------------------(Solver execution current time: 14.265076637268066)
[INFO] Starting OriginalPerturbation
--------------------------------------------------------------------------------(Solver execution current time: 17.806809425354004)
[SOLUTION]
Original Perturbation
Exec Time: 3.5432281494140625
obj_value: -69; obj_routes: 28127.0
Route 1 : 32 40 55 52 2 6 107 127 13 77 115 3 11 86 42 78 68 81 31 41 19 117 60 106 143 130 116 4 88 12 79 135 94 87 56 131 
Route 2 : 73 9 84 70 33 108 148 53 145 128 27 1 54 76 63 48 129 102 22 97 28 59 138 134 103 47 123 35 110 122 
Route 3 : 51 126 10 62 137 14 49 85 89 18 93 124 39 114 20 64 139 50 37 112 125 95 
Route 4 : 21 23 15 98 38 69 96 144 61 136 36 45 5 80 113 43 90 57 120 111 132 118 
Route 5 : 29 30 104 75 105 150 71 67 44 119 17 92 142 146 
Route 6 : 74 25 100 149 
Route 7 : 8 83 
Route 8 : 7 82 
Route 9 : 66 141 
Route 10 : 26 101 
Route 11 : 65 140 
Route 12 : 
Route 13 : 
Route 14 : 
Route 15 : 
Route 16 : 
Route 17 : 
Route 18 : 
Route 19 : 
Route 20 : 
Route 21 : 

--------------------------------------------------------------------------------(Solver execution current time: 17.80830192565918)
[SOLUTION]
SBMath
IT: 1
ITs witout improving: 1
IT time: 4.398258686065674
Time since begin: 4.399090528488159
obj_value: -69; obj_routes: 28127.0
Route 1 : 32 40 55 52 2 6 107 127 13 77 115 3 11 86 42 78 68 81 31 41 19 117 60 106 143 130 116 4 88 12 79 135 94 87 56 131 
Route 2 : 73 9 84 70 33 108 148 53 145 128 27 1 54 76 63 48 129 102 22 97 28 59 138 134 103 47 123 35 110 122 
Route 3 : 51 126 10 62 137 14 49 85 89 18 93 124 39 114 20 64 139 50 37 112 125 95 
Route 4 : 21 23 15 98 38 69 96 144 61 136 36 45 5 80 113 43 90 57 120 111 132 118 
Route 5 : 29 30 104 75 105 150 71 67 44 119 17 92 142 146 
Route 6 : 74 25 100 149 
Route 7 : 8 83 
Route 8 : 7 82 
Route 9 : 66 141 
Route 10 : 26 101 
Route 11 : 65 140 
Route 12 : 
Route 13 : 
Route 14 : 
Route 15 : 
Route 16 : 
Route 17 : 
Route 18 : 
Route 19 : 
Route 20 : 
Route 21 : 

--------------------------------------------------------------------------------(Solver execution current time: 17.808547258377075)
[SOLUTION]
SBMath
IT: 1
ITs witout improving: 1
IT time: 4.398258686065674
Time since begin: 4.399090528488159
obj_value: -69; obj_routes: 26819.0
Route 1 : 32 40 55 52 2 6 107 127 13 77 115 3 11 86 42 78 68 81 31 41 19 117 60 106 143 130 116 4 88 12 79 135 94 87 56 131 69 144 
Route 2 : 73 9 84 70 33 108 148 53 145 128 27 1 54 76 63 48 129 102 22 97 28 59 138 134 103 47 123 35 110 122 
Route 3 : 51 126 10 62 137 14 49 85 89 18 93 124 39 114 20 64 139 50 37 112 125 95 
Route 4 : 21 29 104 23 15 98 38 96 36 45 5 80 113 43 90 57 120 111 132 118 
Route 5 : 75 150 66 141 25 100 7 61 136 71 65 140 67 26 82 44 119 101 142 146 
Route 6 : 17 8 92 30 83 105 
Route 7 : 74 149 
Route 8 : 
Route 9 : 
Route 10 : 
Route 11 : 
Route 12 : 
Route 13 : 
Route 14 : 
Route 15 : 
Route 16 : 
Route 17 : 
Route 18 : 
Route 19 : 
Route 20 : 
Route 21 : 

--------------------------------------------------------------------------------(Solver execution current time: 17.808770656585693)
[INFO] AGES EXCLUDED
--------------------------------------------------------------------------------(Solver execution current time: 17.810347318649292)
[INFO] Starting LNS
--------------------------------------------------------------------------------(Solver execution current time: 18.553977251052856)
[SOLUTION]
LNS
IT: 40
Exec Time: 0.7416317462921143
obj_value: -69; obj_routes: 28127.0
Route 1 : 32 40 55 52 2 6 107 127 13 77 115 3 11 86 42 78 68 81 31 41 19 117 60 106 143 130 116 4 88 12 79 135 94 87 56 131 
Route 2 : 73 9 84 70 33 108 148 53 145 128 27 1 54 76 63 48 129 102 22 97 28 59 138 134 103 47 123 35 110 122 
Route 3 : 51 126 10 62 137 14 49 85 89 18 93 124 39 114 20 64 139 50 37 112 125 95 
Route 4 : 21 23 15 98 38 69 96 144 61 136 36 45 5 80 113 43 90 57 120 111 132 118 
Route 5 : 29 30 104 75 105 150 71 67 44 119 17 92 142 146 
Route 6 : 74 25 100 149 
Route 7 : 8 83 
Route 8 : 7 82 
Route 9 : 66 141 
Route 10 : 26 101 
Route 11 : 65 140 
Route 12 : 
Route 13 : 
Route 14 : 
Route 15 : 
Route 16 : 
Route 17 : 
Route 18 : 
Route 19 : 
Route 20 : 
Route 21 : 

--------------------------------------------------------------------------------(Solver execution current time: 18.557244539260864)
[INFO] Starting PartitionMaxRequestsHF
--------------------------------------------------------------------------------(Solver execution current time: 18.58262014389038)
[SOLUTION]
PartitionMaxRequestsHF
Exec Time: 0.025309324264526367
obj_value: -69; obj_routes: 28127.0
Route 1 : 73 9 84 70 33 108 148 53 145 128 27 1 54 76 63 48 129 102 22 97 28 59 138 134 103 47 123 35 110 122 
Route 2 : 51 126 10 62 137 14 49 85 89 18 93 124 39 114 20 64 139 50 37 112 125 95 
Route 3 : 32 40 55 52 2 6 107 127 13 77 115 3 11 86 42 78 68 81 31 41 19 117 60 106 143 130 116 4 88 12 79 135 94 87 56 131 
Route 4 : 21 23 15 98 38 69 96 144 61 136 36 45 5 80 113 43 90 57 120 111 132 118 
Route 5 : 29 30 104 75 105 150 71 67 44 119 17 92 142 146 
Route 6 : 74 25 100 149 
Route 7 : 8 83 
Route 8 : 7 82 
Route 9 : 66 141 
Route 10 : 26 101 
Route 11 : 65 140 
Route 12 : 
Route 13 : 
Route 14 : 
Route 15 : 
Route 16 : 
Route 17 : 
Route 18 : 
Route 19 : 
Route 20 : 
Route 21 : 

--------------------------------------------------------------------------------(Solver execution current time: 18.584657669067383)
[INFO] Starting OriginalPerturbation
--------------------------------------------------------------------------------(Solver execution current time: 22.549354553222656)
[SOLUTION]
Original Perturbation
Exec Time: 3.9662697315216064
obj_value: -69; obj_routes: 30199.0
Route 1 : 32 40 55 52 2 6 107 127 13 77 115 3 11 86 42 78 68 81 31 41 19 117 60 106 143 130 116 4 88 12 79 135 94 87 56 131 
Route 2 : 73 9 84 70 33 108 148 53 145 128 27 1 54 76 63 48 129 102 22 97 28 59 138 134 103 47 123 35 110 122 
Route 3 : 51 126 10 62 137 14 49 85 89 18 93 124 39 114 20 64 57 132 139 50 125 95 
Route 4 : 21 23 98 38 96 61 136 36 45 113 71 120 111 146 
Route 5 : 29 30 25 104 100 7 105 82 44 119 
Route 6 : 43 65 140 17 92 118 
Route 7 : 8 83 
Route 8 : 
Route 9 : 15 90 74 149 26 101 
Route 10 : 66 141 5 80 
Route 11 : 67 142 69 75 150 144 
Route 12 : 37 112 
Route 13 : 
Route 14 : 
Route 15 : 
Route 16 : 
Route 17 : 
Route 18 : 
Route 19 : 
Route 20 : 
Route 21 : 

--------------------------------------------------------------------------------(Solver execution current time: 22.5509614944458)
[SOLUTION]
SBMath
IT: 2
ITs witout improving: 2
IT time: 4.742193698883057
Time since begin: 9.141751527786255
obj_value: -69; obj_routes: 30199.0
Route 1 : 32 40 55 52 2 6 107 127 13 77 115 3 11 86 42 78 68 81 31 41 19 117 60 106 143 130 116 4 88 12 79 135 94 87 56 131 
Route 2 : 73 9 84 70 33 108 148 53 145 128 27 1 54 76 63 48 129 102 22 97 28 59 138 134 103 47 123 35 110 122 
Route 3 : 51 126 10 62 137 14 49 85 89 18 93 124 39 114 20 64 57 132 139 50 125 95 
Route 4 : 21 23 98 38 96 61 136 36 45 113 71 120 111 146 
Route 5 : 29 30 25 104 100 7 105 82 44 119 
Route 6 : 43 65 140 17 92 118 
Route 7 : 8 83 
Route 8 : 
Route 9 : 15 90 74 149 26 101 
Route 10 : 66 141 5 80 
Route 11 : 67 142 69 75 150 144 
Route 12 : 37 112 
Route 13 : 
Route 14 : 
Route 15 : 
Route 16 : 
Route 17 : 
Route 18 : 
Route 19 : 
Route 20 : 
Route 21 : 

--------------------------------------------------------------------------------(Solver execution current time: 22.551233768463135)
[SOLUTION]
SBMath
IT: 2
ITs witout improving: 2
IT time: 4.742193698883057
Time since begin: 9.141751527786255
obj_value: -69; obj_routes: 26819.0
Route 1 : 32 40 55 52 2 6 107 127 13 77 115 3 11 86 42 78 68 81 31 41 19 117 60 106 143 130 116 4 88 12 79 135 94 87 56 131 69 144 
Route 2 : 73 9 84 70 33 108 148 53 145 128 27 1 54 76 63 48 129 102 22 97 28 59 138 134 103 47 123 35 110 122 
Route 3 : 51 126 10 62 137 14 49 85 89 18 93 124 39 114 20 64 139 50 37 112 125 95 
Route 4 : 21 29 104 23 15 98 38 96 36 45 5 80 113 43 90 57 120 111 132 118 
Route 5 : 75 150 66 141 25 100 7 61 136 71 65 140 67 26 82 44 119 101 142 146 
Route 6 : 17 8 92 30 83 105 
Route 7 : 74 149 
Route 8 : 
Route 9 : 
Route 10 : 
Route 11 : 
Route 12 : 
Route 13 : 
Route 14 : 
Route 15 : 
Route 16 : 
Route 17 : 
Route 18 : 
Route 19 : 
Route 20 : 
Route 21 : 

--------------------------------------------------------------------------------(Solver execution current time: 22.55146336555481)
[INFO] AGES EXCLUDED
--------------------------------------------------------------------------------(Solver execution current time: 22.553077697753906)
[INFO] Starting LNS
--------------------------------------------------------------------------------(Solver execution current time: 23.184834003448486)
[SOLUTION]
LNS
IT: 40
Exec Time: 0.629631519317627
obj_value: -69; obj_routes: 30199.0
Route 1 : 32 40 55 52 2 6 107 127 13 77 115 3 11 86 42 78 68 81 31 41 19 117 60 106 143 130 116 4 88 12 79 135 94 87 56 131 
Route 2 : 73 9 84 70 33 108 148 53 145 128 27 1 54 76 63 48 129 102 22 97 28 59 138 134 103 47 123 35 110 122 
Route 3 : 51 126 10 62 137 14 49 85 89 18 93 124 39 114 20 64 57 132 139 50 125 95 
Route 4 : 21 23 98 38 96 61 136 36 45 113 71 120 111 146 
Route 5 : 29 30 25 104 100 7 105 82 44 119 
Route 6 : 43 65 140 17 92 118 
Route 7 : 8 83 
Route 8 : 
Route 9 : 15 90 74 149 26 101 
Route 10 : 66 141 5 80 
Route 11 : 67 142 69 75 150 144 
Route 12 : 37 112 
Route 13 : 
Route 14 : 
Route 15 : 
Route 16 : 
Route 17 : 
Route 18 : 
Route 19 : 
Route 20 : 
Route 21 : 

--------------------------------------------------------------------------------(Solver execution current time: 23.188019514083862)
[INFO] Starting PartitionMaxRequestsHF
--------------------------------------------------------------------------------(Solver execution current time: 23.216556072235107)
[SOLUTION]
PartitionMaxRequestsHF
Exec Time: 0.02840423583984375
obj_value: -69; obj_routes: 30199.0
Route 1 : 73 9 84 70 33 108 148 53 145 128 27 1 54 76 63 48 129 102 22 97 28 59 138 134 103 47 123 35 110 122 
Route 2 : 32 40 55 52 2 6 107 127 13 77 115 3 11 86 42 78 68 81 31 41 19 117 60 106 143 130 116 4 88 12 79 135 94 87 56 131 
Route 3 : 8 83 
Route 4 : 51 126 10 62 137 14 49 85 89 18 93 124 39 114 20 64 57 132 139 50 125 95 
Route 5 : 21 23 98 38 96 61 136 36 45 113 71 120 111 146 
Route 6 : 29 30 25 104 100 7 105 82 44 119 
Route 7 : 43 65 140 17 92 118 
Route 8 : 15 90 74 149 26 101 
Route 9 : 66 141 5 80 
Route 10 : 67 142 69 75 150 144 
Route 11 : 37 112 
Route 12 : 
Route 13 : 
Route 14 : 
Route 15 : 
Route 16 : 
Route 17 : 
Route 18 : 
Route 19 : 
Route 20 : 
Route 21 : 

--------------------------------------------------------------------------------(Solver execution current time: 23.219094038009644)
[INFO] Starting OriginalPerturbation
--------------------------------------------------------------------------------(Solver execution current time: 24.71212935447693)
[SOLUTION]
Original Perturbation
Exec Time: 1.4951221942901611
obj_value: -69; obj_routes: 30234.0
Route 1 : 32 40 55 52 2 6 107 127 13 77 115 3 11 86 42 78 68 81 31 41 19 117 60 106 143 130 116 4 88 12 79 135 94 87 56 131 
Route 2 : 73 9 84 70 33 108 148 53 145 128 27 1 54 76 63 48 129 102 22 97 28 59 138 134 103 123 35 110 
Route 3 : 51 126 10 62 137 14 49 85 89 18 93 124 39 114 20 64 57 132 139 50 125 95 
Route 4 : 38 21 96 25 100 61 136 36 45 113 71 120 111 146 
Route 5 : 29 37 104 112 7 67 82 142 
Route 6 : 74 149 23 98 44 119 
Route 7 : 65 140 
Route 8 : 
Route 9 : 15 90 26 8 101 83 66 141 
Route 10 : 5 80 75 150 
Route 11 : 17 30 92 105 
Route 12 : 43 69 144 118 47 122 
Route 13 : 
Route 14 : 
Route 15 : 
Route 16 : 
Route 17 : 
Route 18 : 
Route 19 : 
Route 20 : 
Route 21 : 

--------------------------------------------------------------------------------(Solver execution current time: 24.713767766952515)
[SOLUTION]
SBMath
IT: 3
ITs witout improving: 3
IT time: 2.162310838699341
Time since begin: 11.304558277130127
obj_value: -69; obj_routes: 30234.0
Route 1 : 32 40 55 52 2 6 107 127 13 77 115 3 11 86 42 78 68 81 31 41 19 117 60 106 143 130 116 4 88 12 79 135 94 87 56 131 
Route 2 : 73 9 84 70 33 108 148 53 145 128 27 1 54 76 63 48 129 102 22 97 28 59 138 134 103 123 35 110 
Route 3 : 51 126 10 62 137 14 49 85 89 18 93 124 39 114 20 64 57 132 139 50 125 95 
Route 4 : 38 21 96 25 100 61 136 36 45 113 71 120 111 146 
Route 5 : 29 37 104 112 7 67 82 142 
Route 6 : 74 149 23 98 44 119 
Route 7 : 65 140 
Route 8 : 
Route 9 : 15 90 26 8 101 83 66 141 
Route 10 : 5 80 75 150 
Route 11 : 17 30 92 105 
Route 12 : 43 69 144 118 47 122 
Route 13 : 
Route 14 : 
Route 15 : 
Route 16 : 
Route 17 : 
Route 18 : 
Route 19 : 
Route 20 : 
Route 21 : 

--------------------------------------------------------------------------------(Solver execution current time: 24.714033126831055)
[SOLUTION]
SBMath
IT: 3
ITs witout improving: 3
IT time: 2.162310838699341
Time since begin: 11.304558277130127
obj_value: -69; obj_routes: 26819.0
Route 1 : 32 40 55 52 2 6 107 127 13 77 115 3 11 86 42 78 68 81 31 41 19 117 60 106 143 130 116 4 88 12 79 135 94 87 56 131 69 144 
Route 2 : 73 9 84 70 33 108 148 53 145 128 27 1 54 76 63 48 129 102 22 97 28 59 138 134 103 47 123 35 110 122 
Route 3 : 51 126 10 62 137 14 49 85 89 18 93 124 39 114 20 64 139 50 37 112 125 95 
Route 4 : 21 29 104 23 15 98 38 96 36 45 5 80 113 43 90 57 120 111 132 118 
Route 5 : 75 150 66 141 25 100 7 61 136 71 65 140 67 26 82 44 119 101 142 146 
Route 6 : 17 8 92 30 83 105 
Route 7 : 74 149 
Route 8 : 
Route 9 : 
Route 10 : 
Route 11 : 
Route 12 : 
Route 13 : 
Route 14 : 
Route 15 : 
Route 16 : 
Route 17 : 
Route 18 : 
Route 19 : 
Route 20 : 
Route 21 : 

--------------------------------------------------------------------------------(Solver execution current time: 24.71426486968994)
[INFO] AGES EXCLUDED
--------------------------------------------------------------------------------(Solver execution current time: 24.71611261367798)
[INFO] Starting LNS
--------------------------------------------------------------------------------(Solver execution current time: 25.589770317077637)
[SOLUTION]
LNS
IT: 40
Exec Time: 0.8713130950927734
obj_value: -69; obj_routes: 30234.0
Route 1 : 32 40 55 52 2 6 107 127 13 77 115 3 11 86 42 78 68 81 31 41 19 117 60 106 143 130 116 4 88 12 79 135 94 87 56 131 
Route 2 : 73 9 84 70 33 108 148 53 145 128 27 1 54 76 63 48 129 102 22 97 28 59 138 134 103 123 35 110 
Route 3 : 51 126 10 62 137 14 49 85 89 18 93 124 39 114 20 64 57 132 139 50 125 95 
Route 4 : 38 21 96 25 100 61 136 36 45 113 71 120 111 146 
Route 5 : 29 37 104 112 7 67 82 142 
Route 6 : 74 149 23 98 44 119 
Route 7 : 65 140 
Route 8 : 
Route 9 : 15 90 26 8 101 83 66 141 
Route 10 : 5 80 75 150 
Route 11 : 17 30 92 105 
Route 12 : 43 69 144 118 47 122 
Route 13 : 
Route 14 : 
Route 15 : 
Route 16 : 
Route 17 : 
Route 18 : 
Route 19 : 
Route 20 : 
Route 21 : 

--------------------------------------------------------------------------------(Solver execution current time: 25.59266185760498)
[INFO] Starting PartitionMaxRequestsHF
--------------------------------------------------------------------------------(Solver execution current time: 25.619872331619263)
[SOLUTION]
PartitionMaxRequestsHF
Exec Time: 0.027123451232910156
obj_value: -69; obj_routes: 30234.0
Route 1 : 32 40 55 52 2 6 107 127 13 77 115 3 11 86 42 78 68 81 31 41 19 117 60 106 143 130 116 4 88 12 79 135 94 87 56 131 
Route 2 : 65 140 
Route 3 : 51 126 10 62 137 14 49 85 89 18 93 124 39 114 20 64 57 132 139 50 125 95 
Route 4 : 73 9 84 70 33 108 148 53 145 128 27 1 54 76 63 48 129 102 22 97 28 59 138 134 103 123 35 110 
Route 5 : 38 21 96 25 100 61 136 36 45 113 71 120 111 146 
Route 6 : 29 37 104 112 7 67 82 142 
Route 7 : 74 149 23 98 44 119 
Route 8 : 15 90 26 8 101 83 66 141 
Route 9 : 5 80 75 150 
Route 10 : 17 30 92 105 
Route 11 : 43 69 144 118 47 122 
Route 12 : 
Route 13 : 
Route 14 : 
Route 15 : 
Route 16 : 
Route 17 : 
Route 18 : 
Route 19 : 
Route 20 : 
Route 21 : 

--------------------------------------------------------------------------------(Solver execution current time: 25.621959447860718)
[INFO] Starting OriginalPerturbation
--------------------------------------------------------------------------------(Solver execution current time: 27.22428870201111)
[SOLUTION]
Original Perturbation
Exec Time: 1.603940486907959
obj_value: -69; obj_routes: 30320.0
Route 1 : 32 40 55 52 2 6 107 127 13 77 115 3 11 86 42 78 68 81 31 41 19 117 60 106 143 130 116 4 88 12 79 135 94 87 56 131 
Route 2 : 73 9 84 70 33 108 148 53 145 128 27 1 54 76 63 48 129 102 22 97 28 59 138 134 103 123 35 110 
Route 3 : 51 126 10 62 137 14 49 85 89 18 93 124 39 114 64 57 132 139 50 125 
Route 4 : 38 21 96 61 136 36 113 71 66 141 111 146 
Route 5 : 37 47 112 65 140 8 83 122 
Route 6 : 20 69 144 95 17 92 
Route 7 : 29 23 98 104 
Route 8 : 74 149 
Route 9 : 7 67 26 82 142 101 
Route 10 : 25 100 44 5 80 119 
Route 11 : 75 30 45 15 90 105 120 150 
Route 12 : 43 118 
Route 13 : 
Route 14 : 
Route 15 : 
Route 16 : 
Route 17 : 
Route 18 : 
Route 19 : 
Route 20 : 
Route 21 : 

--------------------------------------------------------------------------------(Solver execution current time: 27.226090669631958)
[SOLUTION]
SBMath
IT: 4
ITs witout improving: 4
IT time: 2.511831521987915
Time since begin: 13.816880702972412
obj_value: -69; obj_routes: 30320.0
Route 1 : 32 40 55 52 2 6 107 127 13 77 115 3 11 86 42 78 68 81 31 41 19 117 60 106 143 130 116 4 88 12 79 135 94 87 56 131 
Route 2 : 73 9 84 70 33 108 148 53 145 128 27 1 54 76 63 48 129 102 22 97 28 59 138 134 103 123 35 110 
Route 3 : 51 126 10 62 137 14 49 85 89 18 93 124 39 114 64 57 132 139 50 125 
Route 4 : 38 21 96 61 136 36 113 71 66 141 111 146 
Route 5 : 37 47 112 65 140 8 83 122 
Route 6 : 20 69 144 95 17 92 
Route 7 : 29 23 98 104 
Route 8 : 74 149 
Route 9 : 7 67 26 82 142 101 
Route 10 : 25 100 44 5 80 119 
Route 11 : 75 30 45 15 90 105 120 150 
Route 12 : 43 118 
Route 13 : 
Route 14 : 
Route 15 : 
Route 16 : 
Route 17 : 
Route 18 : 
Route 19 : 
Route 20 : 
Route 21 : 

--------------------------------------------------------------------------------(Solver execution current time: 27.226449012756348)
[SOLUTION]
SBMath
IT: 4
ITs witout improving: 4
IT time: 2.511831521987915
Time since begin: 13.816880702972412
obj_value: -69; obj_routes: 26819.0
Route 1 : 32 40 55 52 2 6 107 127 13 77 115 3 11 86 42 78 68 81 31 41 19 117 60 106 143 130 116 4 88 12 79 135 94 87 56 131 69 144 
Route 2 : 73 9 84 70 33 108 148 53 145 128 27 1 54 76 63 48 129 102 22 97 28 59 138 134 103 47 123 35 110 122 
Route 3 : 51 126 10 62 137 14 49 85 89 18 93 124 39 114 20 64 139 50 37 112 125 95 
Route 4 : 21 29 104 23 15 98 38 96 36 45 5 80 113 43 90 57 120 111 132 118 
Route 5 : 75 150 66 141 25 100 7 61 136 71 65 140 67 26 82 44 119 101 142 146 
Route 6 : 17 8 92 30 83 105 
Route 7 : 74 149 
Route 8 : 
Route 9 : 
Route 10 : 
Route 11 : 
Route 12 : 
Route 13 : 
Route 14 : 
Route 15 : 
Route 16 : 
Route 17 : 
Route 18 : 
Route 19 : 
Route 20 : 
Route 21 : 

--------------------------------------------------------------------------------(Solver execution current time: 27.226734399795532)
[INFO] AGES EXCLUDED
--------------------------------------------------------------------------------(Solver execution current time: 27.22839379310608)
[INFO] Starting LNS
--------------------------------------------------------------------------------(Solver execution current time: 27.989858388900757)
[SOLUTION]
LNS
IT: 40
Exec Time: 0.7594304084777832
obj_value: -69; obj_routes: 30320.0
Route 1 : 32 40 55 52 2 6 107 127 13 77 115 3 11 86 42 78 68 81 31 41 19 117 60 106 143 130 116 4 88 12 79 135 94 87 56 131 
Route 2 : 73 9 84 70 33 108 148 53 145 128 27 1 54 76 63 48 129 102 22 97 28 59 138 134 103 123 35 110 
Route 3 : 51 126 10 62 137 14 49 85 89 18 93 124 39 114 64 57 132 139 50 125 
Route 4 : 38 21 96 61 136 36 113 71 66 141 111 146 
Route 5 : 37 47 112 65 140 8 83 122 
Route 6 : 20 69 144 95 17 92 
Route 7 : 29 23 98 104 
Route 8 : 74 149 
Route 9 : 7 67 26 82 142 101 
Route 10 : 25 100 44 5 80 119 
Route 11 : 75 30 45 15 90 105 120 150 
Route 12 : 43 118 
Route 13 : 
Route 14 : 
Route 15 : 
Route 16 : 
Route 17 : 
Route 18 : 
Route 19 : 
Route 20 : 
Route 21 : 

--------------------------------------------------------------------------------(Solver execution current time: 27.992573499679565)
[INFO] Starting PartitionMaxRequestsHF
--------------------------------------------------------------------------------(Solver execution current time: 28.020192861557007)
[SOLUTION]
PartitionMaxRequestsHF
Exec Time: 0.027556657791137695
obj_value: -69; obj_routes: 30320.0
Route 1 : 32 40 55 52 2 6 107 127 13 77 115 3 11 86 42 78 68 81 31 41 19 117 60 106 143 130 116 4 88 12 79 135 94 87 56 131 
Route 2 : 73 9 84 70 33 108 148 53 145 128 27 1 54 76 63 48 129 102 22 97 28 59 138 134 103 123 35 110 
Route 3 : 51 126 10 62 137 14 49 85 89 18 93 124 39 114 64 57 132 139 50 125 
Route 4 : 38 21 96 61 136 36 113 71 66 141 111 146 
Route 5 : 37 47 112 65 140 8 83 122 
Route 6 : 20 69 144 95 17 92 
Route 7 : 29 23 98 104 
Route 8 : 74 149 
Route 9 : 7 67 26 82 142 101 
Route 10 : 25 100 44 5 80 119 
Route 11 : 75 30 45 15 90 105 120 150 
Route 12 : 43 118 
Route 13 : 
Route 14 : 
Route 15 : 
Route 16 : 
Route 17 : 
Route 18 : 
Route 19 : 
Route 20 : 
Route 21 : 

--------------------------------------------------------------------------------(Solver execution current time: 28.022194147109985)
[INFO] Starting OriginalPerturbation
--------------------------------------------------------------------------------(Solver execution current time: 29.577949047088623)
[SOLUTION]
Original Perturbation
Exec Time: 1.557314395904541
obj_value: -69; obj_routes: 31399.0
Route 1 : 32 40 55 52 2 6 107 127 13 77 115 3 11 86 42 78 68 81 31 41 19 117 60 106 143 130 116 4 88 12 79 135 94 87 56 131 
Route 2 : 73 9 84 70 33 108 148 53 145 128 27 1 54 76 63 48 129 102 22 97 28 59 138 134 103 123 35 110 
Route 3 : 51 126 10 62 137 14 49 85 89 18 93 124 39 114 64 57 132 139 50 125 
Route 4 : 21 96 61 136 17 92 67 142 66 141 
Route 5 : 36 8 111 83 
Route 6 : 38 71 69 144 146 113 
Route 7 : 20 29 95 104 
Route 8 : 74 149 
Route 9 : 65 140 25 100 
Route 10 : 26 44 119 101 
Route 11 : 30 43 118 47 45 15 90 105 120 122 
Route 12 : 7 75 82 150 
Route 13 : 5 80 
Route 14 : 23 98 37 112 
Route 15 : 
Route 16 : 
Route 17 : 
Route 18 : 
Route 19 : 
Route 20 : 
Route 21 : 

--------------------------------------------------------------------------------(Solver execution current time: 29.57959222793579)
[SOLUTION]
SBMath
IT: 5
ITs witout improving: 5
IT time: 2.35286808013916
Time since begin: 16.17038321495056
obj_value: -69; obj_routes: 31399.0
Route 1 : 32 40 55 52 2 6 107 127 13 77 115 3 11 86 42 78 68 81 31 41 19 117 60 106 143 130 116 4 88 12 79 135 94 87 56 131 
Route 2 : 73 9 84 70 33 108 148 53 145 128 27 1 54 76 63 48 129 102 22 97 28 59 138 134 103 123 35 110 
Route 3 : 51 126 10 62 137 14 49 85 89 18 93 124 39 114 64 57 132 139 50 125 
Route 4 : 21 96 61 136 17 92 67 142 66 141 
Route 5 : 36 8 111 83 
Route 6 : 38 71 69 144 146 113 
Route 7 : 20 29 95 104 
Route 8 : 74 149 
Route 9 : 65 140 25 100 
Route 10 : 26 44 119 101 
Route 11 : 30 43 118 47 45 15 90 105 120 122 
Route 12 : 7 75 82 150 
Route 13 : 5 80 
Route 14 : 23 98 37 112 
Route 15 : 
Route 16 : 
Route 17 : 
Route 18 : 
Route 19 : 
Route 20 : 
Route 21 : 

--------------------------------------------------------------------------------(Solver execution current time: 29.579835176467896)
[SOLUTION]
SBMath
IT: 5
ITs witout improving: 5
IT time: 2.35286808013916
Time since begin: 16.17038321495056
obj_value: -69; obj_routes: 26819.0
Route 1 : 32 40 55 52 2 6 107 127 13 77 115 3 11 86 42 78 68 81 31 41 19 117 60 106 143 130 116 4 88 12 79 135 94 87 56 131 69 144 
Route 2 : 73 9 84 70 33 108 148 53 145 128 27 1 54 76 63 48 129 102 22 97 28 59 138 134 103 47 123 35 110 122 
Route 3 : 51 126 10 62 137 14 49 85 89 18 93 124 39 114 20 64 139 50 37 112 125 95 
Route 4 : 21 29 104 23 15 98 38 96 36 45 5 80 113 43 90 57 120 111 132 118 
Route 5 : 75 150 66 141 25 100 7 61 136 71 65 140 67 26 82 44 119 101 142 146 
Route 6 : 17 8 92 30 83 105 
Route 7 : 74 149 
Route 8 : 
Route 9 : 
Route 10 : 
Route 11 : 
Route 12 : 
Route 13 : 
Route 14 : 
Route 15 : 
Route 16 : 
Route 17 : 
Route 18 : 
Route 19 : 
Route 20 : 
Route 21 : 

--------------------------------------------------------------------------------(Solver execution current time: 29.580086946487427)
[INFO] AGES EXCLUDED
--------------------------------------------------------------------------------(Solver execution current time: 29.581716537475586)
[INFO] Starting LNS
--------------------------------------------------------------------------------(Solver execution current time: 30.087092399597168)
[WARNING] Time Limit Exceeded
--------------------------------------------------------------------------------(Solver execution current time: 30.08726978302002)
[WARNING] Searching current best solution.
--------------------------------------------------------------------------------(Solver execution current time: 30.089728116989136)
[INFO] Algorithm execution time : 30.090505599975586
--------------------------------------------------------------------------------(Solver execution current time: 30.090723037719727)
[SOLUTION]
Final Solution Verification
====================================
Constraints verification: 
Homogenous Capacity Constraint OK
Time Windwos Constraint OK
Pickup and Delivery Constraint OK
Fixed Requests Constraint OK
Limited Fleet Constraint OK
Heterogeneous Fleet Constraint OK
====================================
Obj Func verification: 
SOLUTION COST OK
------------------------------------
ROUTES TOTAL COST OK
------------------------------------
REQUESTS TOTAL COST OK
------------------------------------
OBJECTIVE VALUE: -69
ROUTES VALUE: 26819.0
------------------------------------

Best Solution: 
obj_value: -69; obj_routes: 26819.0
Route 1 : 32 40 55 52 2 6 107 127 13 77 115 3 11 86 42 78 68 81 31 41 19 117 60 106 143 130 116 4 88 12 79 135 94 87 56 131 69 144 
Route 2 : 73 9 84 70 33 108 148 53 145 128 27 1 54 76 63 48 129 102 22 97 28 59 138 134 103 47 123 35 110 122 
Route 3 : 51 126 10 62 137 14 49 85 89 18 93 124 39 114 20 64 139 50 37 112 125 95 
Route 4 : 21 29 104 23 15 98 38 96 36 45 5 80 113 43 90 57 120 111 132 118 
Route 5 : 75 150 66 141 25 100 7 61 136 71 65 140 67 26 82 44 119 101 142 146 
Route 6 : 17 8 92 30 83 105 
Route 7 : 74 149 
Route 8 : 
Route 9 : 
Route 10 : 
Route 11 : 
Route 12 : 
Route 13 : 
Route 14 : 
Route 15 : 
Route 16 : 
Route 17 : 
Route 18 : 
Route 19 : 
Route 20 : 
Route 21 : 

--------------------------------------------------------------------------------